246 5
10 10 10 10 10 

0 0 0 0 0 0 4 2 14 26 38 
0 0 0 0 0 0 4 3 5 6 12 
4 0 0 0 0 3 2 11 4 
10 0 0 0 0 6 3 9 8 7 
9 0 0 0 0 10 1 10 
1 0 0 0 0 9 1 7 
10 0 0 0 0 10 1 13 
8 0 0 0 0 5 1 13 
5 0 0 0 0 10 1 13 
5 0 0 0 0 9 1 13 
10 0 0 0 0 7 1 13 
4 0 0 0 0 6 1 13 
0 0 0 0 0 0 1 50 
0 0 0 0 0 0 5 15 16 17 18 20 
2 3 0 0 0 0 3 24 22 21 
1 10 0 0 0 0 3 23 22 21 
1 9 0 0 0 0 2 22 19 
1 5 0 0 0 0 1 19 
8 6 0 0 0 0 1 21 
5 10 0 0 0 0 1 23 
3 10 0 0 0 0 1 25 
3 10 0 0 0 0 1 25 
9 7 0 0 0 0 1 25 
4 5 0 0 0 0 1 25 
0 0 0 0 0 0 1 50 
0 0 0 0 0 0 4 27 28 29 31 
10 0 0 0 0 8 4 34 33 32 30 
2 0 0 0 0 1 3 36 34 32 
8 0 0 0 0 10 2 33 32 
5 0 0 0 0 10 1 35 
5 0 0 0 0 7 1 32 
5 0 0 0 0 7 1 37 
10 0 0 0 0 9 1 37 
4 0 0 0 0 8 1 37 
7 0 0 0 0 5 1 37 
8 0 0 0 0 10 1 37 
0 0 0 0 0 0 1 50 
0 0 0 0 0 0 3 39 40 41 
10 0 0 0 4 0 3 48 43 42 
3 0 0 0 6 0 3 47 45 44 
1 0 0 0 6 0 2 46 44 
8 0 0 0 8 0 1 45 
5 0 0 0 7 0 1 44 
9 0 0 0 7 0 1 49 
6 0 0 0 8 0 1 49 
9 0 0 0 10 0 1 49 
10 0 0 0 9 0 1 49 
7 0 0 0 10 0 1 49 
0 0 0 0 0 0 1 50 
0 0 0 0 0 0 4 51 63 75 87 
0 0 0 0 0 0 6 52 53 54 55 56 57 
1 0 0 2 0 0 2 59 58 
8 0 0 9 0 0 2 59 58 
6 0 0 10 0 0 2 59 58 
8 0 0 7 0 0 2 59 58 
2 0 0 10 0 0 1 58 
7 0 0 10 0 0 1 58 
9 0 0 10 0 0 2 61 60 
4 0 0 10 0 0 2 61 60 
6 0 0 4 0 0 1 62 
7 0 0 3 0 0 1 62 
0 0 0 0 0 0 1 99 
0 0 0 0 0 0 4 64 65 72 73 
3 0 1 0 0 0 2 71 66 
8 0 10 0 0 0 3 70 69 67 
8 0 8 0 0 0 2 68 67 
1 0 8 0 0 0 1 74 
1 0 9 0 0 0 1 74 
10 0 8 0 0 0 1 74 
5 0 8 0 0 0 1 74 
4 0 9 0 0 0 1 74 
4 0 8 0 0 0 1 74 
10 0 6 0 0 0 1 74 
0 0 0 0 0 0 1 99 
0 0 0 0 0 0 7 76 78 79 82 83 84 85 
6 0 3 0 0 0 1 77 
6 0 7 0 0 0 2 81 80 
5 0 7 0 0 0 1 80 
2 0 10 0 0 0 1 80 
9 0 8 0 0 0 1 86 
10 0 10 0 0 0 1 86 
6 0 7 0 0 0 1 86 
1 0 4 0 0 0 1 86 
2 0 9 0 0 0 1 86 
1 0 10 0 0 0 1 86 
0 0 0 0 0 0 1 99 
0 0 0 0 0 0 6 88 90 91 92 96 97 
4 0 0 0 0 1 2 94 89 
10 0 0 0 0 8 1 95 
7 0 0 0 0 9 1 94 
7 0 0 0 0 10 1 93 
4 0 0 0 0 10 1 93 
8 0 0 0 0 10 1 98 
5 0 0 0 0 6 1 98 
9 0 0 0 0 3 1 98 
8 0 0 0 0 10 1 98 
5 0 0 0 0 8 1 98 
0 0 0 0 0 0 1 99 
0 0 0 0 0 0 4 100 112 124 136 
0 0 0 0 0 0 5 101 102 103 104 110 
3 0 0 0 4 0 2 109 108 
1 0 0 0 6 0 1 106 
5 0 0 0 7 0 1 105 
9 0 0 0 8 0 1 105 
3 0 0 0 10 0 1 107 
4 0 0 0 10 0 1 107 
1 0 0 0 9 0 1 111 
2 0 0 0 9 0 1 111 
3 0 0 0 8 0 1 111 
7 0 0 0 4 0 1 111 
0 0 0 0 0 0 1 148 
0 0 0 0 0 0 7 113 114 115 116 119 121 122 
9 0 3 0 0 0 2 118 117 
10 0 10 0 0 0 1 118 
2 0 3 0 0 0 1 117 
6 0 6 0 0 0 1 117 
7 0 6 0 0 0 1 120 
3 0 10 0 0 0 1 120 
4 0 10 0 0 0 1 120 
4 0 10 0 0 0 1 123 
2 0 9 0 0 0 1 123 
2 0 8 0 0 0 1 123 
0 0 0 0 0 0 1 148 
0 0 0 0 0 0 4 125 126 127 130 
7 0 3 0 0 0 4 134 133 132 128 
10 0 5 0 0 0 3 132 129 128 
7 0 8 0 0 0 3 134 132 131 
8 0 10 0 0 0 1 131 
6 0 9 0 0 0 1 131 
10 0 6 0 0 0 1 133 
8 0 10 0 0 0 1 135 
8 0 10 0 0 0 1 135 
7 0 4 0 0 0 1 135 
3 0 10 0 0 0 1 135 
0 0 0 0 0 0 1 148 
0 0 0 0 0 0 5 137 138 139 141 142 
3 0 0 0 4 0 3 146 144 140 
1 0 0 0 2 0 3 146 144 143 
1 0 0 0 7 0 2 145 143 
2 0 0 0 10 0 1 143 
5 0 0 0 10 0 1 145 
7 0 0 0 10 0 1 144 
1 0 0 0 10 0 1 147 
1 0 0 0 9 0 1 147 
4 0 0 0 8 0 1 147 
7 0 0 0 5 0 1 147 
0 0 0 0 0 0 1 148 
0 0 0 0 0 0 4 149 161 173 185 
0 0 0 0 0 0 5 150 151 152 154 159 
9 2 0 0 0 0 3 156 155 153 
10 7 0 0 0 0 3 158 156 155 
9 10 0 0 0 0 2 156 155 
1 10 0 0 0 0 1 157 
7 9 0 0 0 0 1 157 
3 8 0 0 0 0 1 160 
4 8 0 0 0 0 1 160 
4 5 0 0 0 0 1 160 
6 8 0 0 0 0 1 160 
4 8 0 0 0 0 1 160 
0 0 0 0 0 0 1 197 
0 0 0 0 0 0 5 162 163 164 170 171 
6 0 0 0 2 0 2 169 165 
3 0 0 0 6 0 4 169 168 167 166 
6 0 0 0 8 0 4 169 168 167 166 
4 0 0 0 10 0 3 168 167 166 
5 0 0 0 9 0 1 172 
9 0 0 0 8 0 1 172 
6 0 0 0 7 0 1 172 
8 0 0 0 10 0 1 172 
3 0 0 0 6 0 1 172 
8 0 0 0 9 0 1 172 
0 0 0 0 0 0 1 197 
0 0 0 0 0 0 8 174 176 177 179 180 181 182 183 
2 4 0 0 0 0 1 175 
7 5 0 0 0 0 1 178 
8 10 0 0 0 0 1 178 
10 9 0 0 0 0 1 178 
7 9 0 0 0 0 1 184 
7 7 0 0 0 0 1 184 
7 6 0 0 0 0 1 184 
4 10 0 0 0 0 1 184 
4 8 0 0 0 0 1 184 
7 7 0 0 0 0 1 184 
0 0 0 0 0 0 1 197 
0 0 0 0 0 0 6 186 187 188 189 190 192 
1 5 0 0 0 0 3 195 194 191 
6 5 0 0 0 0 3 195 194 193 
10 8 0 0 0 0 2 195 191 
4 10 0 0 0 0 2 195 191 
3 10 0 0 0 0 2 194 193 
4 9 0 0 0 0 1 193 
1 5 0 0 0 0 1 194 
7 10 0 0 0 0 1 196 
8 3 0 0 0 0 1 196 
6 10 0 0 0 0 1 196 
0 0 0 0 0 0 1 197 
0 0 0 0 0 0 4 198 210 222 234 
0 0 0 0 0 0 4 199 200 202 203 
8 6 0 0 0 0 2 208 201 
1 5 0 0 0 0 4 207 206 205 204 
7 8 0 0 0 0 3 207 205 204 
2 10 0 0 0 0 3 206 205 204 
3 10 0 0 0 0 3 206 205 204 
10 5 0 0 0 0 1 209 
2 6 0 0 0 0 1 209 
4 5 0 0 0 0 1 209 
5 10 0 0 0 0 1 209 
6 10 0 0 0 0 1 209 
0 0 0 0 0 0 1 246 
0 0 0 0 0 0 5 211 213 214 219 220 
7 1 0 0 0 0 3 218 215 212 
9 10 0 0 0 0 2 217 216 
5 7 0 0 0 0 2 217 216 
10 8 0 0 0 0 2 217 216 
4 6 0 0 0 0 1 216 
6 10 0 0 0 0 1 221 
8 7 0 0 0 0 1 221 
1 7 0 0 0 0 1 221 
5 10 0 0 0 0 1 221 
5 9 0 0 0 0 1 221 
0 0 0 0 0 0 1 246 
0 0 0 0 0 0 3 223 224 226 
3 0 4 0 0 0 4 232 229 228 227 
7 0 5 0 0 0 2 231 225 
6 0 10 0 0 0 2 229 228 
10 0 10 0 0 0 1 227 
9 0 4 0 0 0 1 230 
4 0 10 0 0 0 1 233 
5 0 7 0 0 0 1 233 
5 0 6 0 0 0 1 233 
2 0 10 0 0 0 1 233 
1 0 9 0 0 0 1 233 
0 0 0 0 0 0 1 246 
0 0 0 0 0 0 7 235 236 238 239 242 243 244 
4 8 0 0 0 0 2 241 237 
4 9 0 0 0 0 2 241 240 
2 7 0 0 0 0 1 240 
1 10 0 0 0 0 1 240 
1 4 0 0 0 0 1 240 
3 10 0 0 0 0 1 245 
2 7 0 0 0 0 1 245 
2 7 0 0 0 0 1 245 
10 6 0 0 0 0 1 245 
6 7 0 0 0 0 1 245 
0 0 0 0 0 0 1 246 
0 0 0 0 0 0 0 
